p cnf 68 54
-1 40 57 -60 -62 -66 -67 0 
-2 28 35 38 54 -3 58 -60 -62 -66 -67 0 
-1 40 -4 59 -60 -62 -66 -67 0 
-5 24 44 49 50 52 -6 59 -60 -62 -66 -67 0 
-7 17 60 -62 -66 -67 0 
-8 9 60 -62 -66 -67 0 
-9 8 -10 61 -60 -62 -66 -67 -31 -34 0 
-11 21 29 -12 62 -60 -66 -67 0 
-13 37 -14 25 30 36 43 63 -60 -62 -66 -67 0 
-15 62 -60 -66 -67 0 
-1 40 58 -60 -62 -66 -67 0 
-1 40 59 -60 -62 -66 -67 0 
-16 23 27 62 -60 -66 -67 0 
-9 8 61 -60 -62 -66 -67 -31 -34 0 
-1 40 63 -60 -62 -66 -67 0 
-17 7 64 -60 -62 -66 -67 0 
-18 65 -60 -62 -66 -67 0 
-19 66 -60 -62 -67 0 
-20 60 -62 -66 -67 0 
-21 11 29 60 -62 -66 -67 0 
-22 60 -62 -66 -67 0 
-23 16 27 60 -62 -66 -67 0 
-24 5 44 49 50 52 -25 14 30 36 43 62 -60 -66 -67 0 
-26 60 -62 -66 -67 0 
-27 16 23 66 -60 -62 -67 0 
-28 2 35 38 54 66 -60 -62 -67 0 
-29 11 21 66 -60 -62 -67 0 
-30 14 25 36 43 66 -60 -62 -67 0 
-31 34 60 -62 -66 -67 0 
-32 45 46 -33 60 -62 -66 -67 0 
-34 31 60 -62 -66 -67 0 
-33 -32 45 46 60 -62 -66 -67 0 
-35 2 28 38 54 60 -62 -66 -67 0 
-36 14 25 30 43 60 -62 -66 -67 0 
-37 13 -38 2 28 35 54 60 -62 -66 -67 0 
-38 2 28 35 54 -39 60 -62 -66 -67 0 
-16 23 27 60 -62 -66 -67 0 
-40 1 -41 60 -62 -66 -67 0 
-16 23 27 -42 60 -62 -66 -67 0 
-37 13 -43 14 25 30 36 60 -62 -66 -67 0 
-8 9 -44 5 24 49 50 52 60 -62 -66 -67 0 
-45 32 46 60 -62 -66 -67 0 
-29 11 21 -32 45 46 66 -60 -62 -67 0 
-33 -46 32 45 60 -62 -66 -67 0 
-47 -28 2 35 38 54 66 -60 -62 -67 0 
-7 17 62 -60 -66 -67 0 
-48 66 -60 -62 -67 0 
-49 5 24 44 50 52 60 -62 -66 -67 0 
-50 5 24 44 49 52 60 -62 -66 -67 0 
-51 56 -52 5 24 44 49 50 67 -60 -62 -66 0 
-53 -54 2 28 35 38 60 -62 -66 -67 0 
-55 -14 25 30 36 43 60 -62 -66 -67 0 
-1 40 68 -60 -62 -66 -67 0 
-56 51 66 -60 -62 -67 0 
